NAME : pr0.tsp
COMMENT : 10-city problem
TYPE : TSP 
DIMENSION : 10
EDGE_WEIGHT_TYPE : EUC_2D
NODE_COORD_SECTION 
1  2.723500e+04 6.016400e+04 
2  3.533500e+04 2.400000e+03 
3  2.593000e+04 1.572100e+04 
4  3.381900e+04 2.973700e+04 
5  2.460600e+04 8.247100e+04 
6  6.264000e+03 5.410800e+04 
7  5.954300e+04 9.134400e+04 
8  4.023300e+04 5.572300e+04 
9  8.662200e+04 5.814700e+04 
10 4.000000e+00 9.795000e+04 
EOF 
